(set-info :source |printed by MathSAT|)
(declare-fun ldv_module_refcounter () (_ BitVec 32))

*:
(assert (let ((.def_27259 (= ldv_module_refcounter (_ bv1 32)))).def_27259))
(assert (let ((.def_27264 (bvslt (_ bv1 32) ldv_module_refcounter))).def_27264))

